%%% static parameters %%%
timespan = 1;
Fact = [4];
Distr1 = [15];
Distr2 = [30];
Clients_N = [300];
Demand_W = [15];
Lt0 = [4];
Lt1 = [4];
SS_ = [0.85];
DS_D = [8];
K = [200];
MA = [500];
%%% dynamic parameters %%%
lost_ratio_sales_ret_th = 0.841717577139533;
lost_ratio_sales_ret_w = 43;
lost_ratio_sales_dis_th = 0.7505326025820348;
lost_ratio_sales_dis_w = 92;
lost_ratio_sales_fac_th = 0.9935104648741376;
lost_ratio_sales_fac_w = 99;
stock_customer_MA_mean_relative_th = 0.9070782194411543;
stock_customer_MA_mean_relative_w = 93;
stock_distributor_MA_mean_relative_th = 0.022237145788130186;
stock_distributor_MA_mean_relative_w = 58;
stock_retailer_MA_mean_relative_th = 0.06049396155148823;
stock_retailer_MA_mean_relative_w = 70;
stock_factory_MA_mean_relative_th = 0.6264542872110554;
stock_factory_MA_mean_relative_w = 61;
